%chk=C:\Users\melih\Desktop\Gaussian\H2S\NetAngleScan.chk
# opt=modredundant hf/3-21g geom=connectivity

H2S Energy

0 1
 S                  0.00000000    0.00000000    0.08400670
 H                  0.00000000    0.84205183   -0.91951160
 H                  0.00000000   -0.84205183   -0.91951160

 1 2 1.0 3 1.0
 2
 3

A 3 1 2 S 400 0.100000

