%chk=C:\Users\melih\Desktop\Gaussian\H2S\BondScan.chk
# opt=modredundant hf/3-21g geom=connectivity

H2S Bond Length Scan

0 1
 S                 -1.41573822    0.59765765    0.00000000
 H                 -0.44869228    0.85225960    0.00000000
 H                 -1.49854643    1.59422316    0.00000000

 1 2 1.0 3 1.0
 2
 3

B 1 2 S 10 0.100000
B 1 3 S 10 0.100000
A 2 1 3 S 400 0.100000

